(declare-fun temp247_1 () (_ BitVec 64))
(declare-fun temp247_2 () (_ BitVec 64))
(declare-fun var66845 () (_ BitVec 64))
(declare-fun k!0 () Bool)
(declare-fun ARGNAME_input_NAMEEND_DIM () (_ BitVec 64))
(declare-fun temp247_3 () (_ BitVec 64))
(declare-fun ARGNAME_crops_NAMEEND_DIM () (_ BitVec 64))
(declare-fun var264765 () (_ BitVec 64))
(declare-fun var264761 () (_ BitVec 64))
(declare-fun var132721 () (_ BitVec 64))
(declare-fun temp247_4 () (_ BitVec 64))
(declare-fun temp247_5 () (_ BitVec 64))
(declare-fun ARGNAME_crops_NAMEEND_DIMSIZE
             ()
             (Array (_ BitVec 64) (_ BitVec 64)))
(declare-fun temp247_6 () (_ BitVec 64))
(declare-fun temp247_7 () (_ BitVec 64))
(declare-fun temp247_8 () (_ BitVec 64))
(declare-fun temp247_9 () (_ BitVec 64))
(declare-fun temp247_10 () (_ BitVec 64))
(declare-fun temp247_11 () (_ BitVec 64))
(declare-fun temp247_12 () (_ BitVec 64))
(declare-fun temp247_13 () (_ BitVec 64))
(declare-fun temp247_14 () (_ BitVec 64))
(declare-fun temp247_15 () (_ BitVec 64))
(declare-fun temp247_16 () (_ BitVec 64))
(declare-fun temp247_17 () (_ BitVec 64))
(declare-fun temp247_18 () (_ BitVec 64))
(declare-fun var132727 () (_ BitVec 64))
(declare-fun temp247_19 () (_ BitVec 64))
(declare-fun temp247_20 () (_ BitVec 64))
(declare-fun var132730 () (_ BitVec 64))
(declare-fun temp247_21 () (_ BitVec 64))
(declare-fun var132731 () (_ BitVec 64))
(declare-fun temp247_22 () (_ BitVec 64))
(declare-fun temp247_23 () (_ BitVec 64))
(declare-fun var132825 () (_ BitVec 64))
(declare-fun temp247_24 () (_ BitVec 64))
(declare-fun var132863 () (_ BitVec 64))
(declare-fun temp247_25 () (_ BitVec 64))
(declare-fun var132869 () (_ BitVec 64))
(declare-fun temp247_26 () (_ BitVec 64))
(declare-fun var132871 () (_ BitVec 64))
(declare-fun temp247_27 () (_ BitVec 64))
(declare-fun temp247_28 () (_ BitVec 64))
(declare-fun ARGNAME_input_NAMEEND_DIMSIZE
             ()
             (Array (_ BitVec 64) (_ BitVec 64)))
(declare-fun temp247_29 () (_ BitVec 64))
(declare-fun temp247_30 () (_ BitVec 64))
(declare-fun temp247_31 () (_ BitVec 64))
(declare-fun temp247_32 () (_ BitVec 64))
(declare-fun temp247_33 () (_ BitVec 64))
(declare-fun temp247_34 () (_ BitVec 64))
(declare-fun temp247_35 () (_ BitVec 64))
(declare-fun temp247_36 () (_ BitVec 64))
(declare-fun temp247_37 () (_ BitVec 64))
(declare-fun temp247_38 () (_ BitVec 64))
(declare-fun temp247_39 () (_ BitVec 64))
(declare-fun temp247_40 () (_ BitVec 64))
(declare-fun temp247_41 () (_ BitVec 64))
(declare-fun var132917 () (_ BitVec 64))
(declare-fun var132918 () (_ BitVec 64))
(declare-fun var132919 () (_ BitVec 64))
(declare-fun temp247_42 () (_ BitVec 64))
(declare-fun var132920 () (_ BitVec 64))
(declare-fun temp247_43 () (_ BitVec 64))
(declare-fun temp247_44 () (_ BitVec 64))
(declare-fun var133009 () (_ BitVec 64))
(declare-fun temp247_45 () (_ BitVec 64))
(declare-fun var133011 () (_ BitVec 64))
(declare-fun var133047 () (_ BitVec 64))
(declare-fun temp247_46 () (_ BitVec 64))
(declare-fun var133173 () (_ BitVec 64))
(assert (= temp247_1 #x0000000000000004))
(assert (= var66845
   (ite (= ARGNAME_input_NAMEEND_DIM temp247_1)
        #x0000000000000001
        #x0000000000000000)))
(assert (= temp247_2 #x0000000000000001))
(assert (= var66845 temp247_2))
(assert (= temp247_3 #x0000000000000002))
(assert (= var264765
   (ite (= ARGNAME_crops_NAMEEND_DIM temp247_3)
        #x0000000000000001
        #x0000000000000000)))
(assert (= var264761 var264765))
(assert (= var132721 var264761))
(assert (= temp247_4 #x0000000000000001))
(assert (= var132721 temp247_4))
(assert (= temp247_5 #x0000000000000000))
(assert (= temp247_6 (select ARGNAME_crops_NAMEEND_DIMSIZE temp247_5)))
(assert (= temp247_7 #x0000000000000001))
(assert (= temp247_8 (select ARGNAME_crops_NAMEEND_DIMSIZE temp247_7)))
(assert (= temp247_9 #x0000000000000002))
(assert (= temp247_10 (select ARGNAME_crops_NAMEEND_DIMSIZE temp247_9)))
(assert (= temp247_11 #x0000000000000003))
(assert (= temp247_12 (select ARGNAME_crops_NAMEEND_DIMSIZE temp247_11)))
(assert (= temp247_13 #x0000000000000004))
(assert (= temp247_14 (select ARGNAME_crops_NAMEEND_DIMSIZE temp247_13)))
(assert (= temp247_15 #x0000000000000005))
(assert (= temp247_16 (select ARGNAME_crops_NAMEEND_DIMSIZE temp247_15)))
(assert (= temp247_17 #x0000000000000000))
(assert (= temp247_18 (select ARGNAME_crops_NAMEEND_DIMSIZE temp247_17)))
(assert (= var132727 temp247_18))
(assert (= temp247_19 #x0000000000000001))
(assert (= temp247_20 (select ARGNAME_crops_NAMEEND_DIMSIZE temp247_19)))
(assert (= var132730 temp247_20))
(assert (= temp247_21 #x0000000000000002))
(assert (= var132731
   (ite (= var132730 temp247_21) #x0000000000000001 #x0000000000000000)))
(assert (= temp247_22 #x0000000000000001))
(assert (= var132731 temp247_22))
(assert (= temp247_23 #x0000000000000000))
(assert (= var132825 temp247_23))
(assert (= temp247_24 #x0000000000000000))
(assert (= var132863 temp247_24))
(assert (= temp247_25 #x0000000000000001))
(assert (= var132869 temp247_25))
(assert (= temp247_26 #x0000000000000000))
(assert (= var132871
   (ite (bvsgt var132869 temp247_26) #x0000000000000001 #x0000000000000000)))
(assert (= temp247_27 #x0000000000000001))
(assert (= var132871 temp247_27))
(assert (= temp247_28 #x0000000000000000))
(assert (= temp247_29 (select ARGNAME_input_NAMEEND_DIMSIZE temp247_28)))
(assert (= temp247_30 #x0000000000000001))
(assert (= temp247_31 (select ARGNAME_input_NAMEEND_DIMSIZE temp247_30)))
(assert (= temp247_32 #x0000000000000002))
(assert (= temp247_33 (select ARGNAME_input_NAMEEND_DIMSIZE temp247_32)))
(assert (= temp247_34 #x0000000000000003))
(assert (= temp247_35 (select ARGNAME_input_NAMEEND_DIMSIZE temp247_34)))
(assert (= temp247_36 #x0000000000000004))
(assert (= temp247_37 (select ARGNAME_input_NAMEEND_DIMSIZE temp247_36)))
(assert (= temp247_38 #x0000000000000005))
(assert (= temp247_39 (select ARGNAME_input_NAMEEND_DIMSIZE temp247_38)))
(assert (= temp247_40 #x0000000000000000))
(assert (= temp247_41 (select ARGNAME_input_NAMEEND_DIMSIZE temp247_40)))
(assert (= var132917 temp247_41))
(assert (= var132918 (bvsmod var132917 var132869)))
(assert (= var132919 (bvsdiv var132917 var132869)))
(assert (= temp247_42 #x0000000000000000))
(assert (= var132920
   (ite (= var132918 temp247_42) #x0000000000000001 #x0000000000000000)))
(assert (= temp247_43 #x0000000000000001))
(assert (= var132920 temp247_43))
(assert (= temp247_44 #x0000000000000000))
(assert (= var133009
   (ite (= var132825 temp247_44) #x0000000000000001 #x0000000000000000)))
(assert (= temp247_45 #x0000000000000001))
(assert (= var133009 temp247_45))
(assert (= var133011 var132917))
(assert (= var133047 (bvsdiv var133011 var132869)))
(assert (= temp247_46 #x000000000000001a))
(assert (= var133173 temp247_46))
(model-add temp247_1 () (_ BitVec 64) #x0000000000000004)
(model-add temp247_2 () (_ BitVec 64) #x0000000000000001)
(model-add var66845 () (_ BitVec 64) #x0000000000000001)
(model-del k!0)
(model-add ARGNAME_input_NAMEEND_DIM
           ()
           (_ BitVec 64)
           (ite k!0 #x0000000000000004 (bvnot #x0000000000000004)))












